min: c;

c = 3.35941386583183 * u4_t1_h1 + 3.32427010274222 * u4_t1_h2 + 3.47488834944857 * u4_t1_h3 + 3.66229909806977 * u4_t1_h4 + 3.66229909806977 * u4_t10_h4 + 3.23576560529748 * u4_t1_h5 + 3.23576560529748 * u4_t10_h5 + 3.57135646700725 * u4_t1_h6 + 3.57135646700725 * u4_t10_h6 + 3.6540916986923 * u4_t1_h7 + 3.6540916986923 * u4_t10_h7 + 5.01082579597824 * u4_t1_h8 + 5.01082579597824 * u4_t9_h8 + 5.01082579597824 * u4_t10_h8 + 4.81437261931057 * u4_t9_h9 + 4.81437261931057 * u4_t10_h9 + 5.50655696179536 * u4_t9_h10 + 5.50655696179536 * u4_t10_h10 + 4.30532398455938 * u4_t2_h11 + 4.30532398455938 * u4_t4_h11 + 4.30532398455938 * u4_t9_h11 + 4.30532398455938 * u4_t10_h11 + 5.84725104971565 * u4_t2_h12 + 5.84725104971565 * u4_t3_h12 + 5.84725104971565 * u4_t4_h12 + 5.84725104971565 * u4_t8_h12 + 5.84725104971565 * u4_t9_h12 + 5.84725104971565 * u4_t10_h12 + 4.31038989729462 * u4_t2_h13 + 4.31038989729462 * u4_t3_h13 + 4.31038989729462 * u4_t4_h13 + 4.31038989729462 * u4_t8_h13 + 4.31038989729462 * u4_t9_h13 + 4.95487036867434 * u4_t2_h14 + 4.95487036867434 * u4_t3_h14 + 4.95487036867434 * u4_t4_h14 + 4.95487036867434 * u4_t8_h14 + 4.95487036867434 * u4_t9_h14 + 6.33427204049809 * u4_t2_h15 + 6.33427204049809 * u4_t3_h15 + 6.33427204049809 * u4_t4_h15 + 6.33427204049809 * u4_t8_h15 + 6.33427204049809 * u4_t9_h15 + 5.86110680161772 * u4_t2_h16 + 5.86110680161772 * u4_t3_h16 + 5.86110680161772 * u4_t4_h16 + 5.86110680161772 * u4_t5_h16 + 5.86110680161772 * u4_t8_h16 + 5.86110680161772 * u4_t9_h16 + 5.88678624909748 * u4_t2_h17 + 5.88678624909748 * u4_t3_h17 + 5.88678624909748 * u4_t5_h17 + 5.88678624909748 * u4_t8_h17 + 5.88678624909748 * u4_t9_h17 + 6.32435795812129 * u4_t2_h18 + 6.32435795812129 * u4_t3_h18 + 6.32435795812129 * u4_t5_h18 + 6.32435795812129 * u4_t8_h18 + 6.32435795812129 * u4_t9_h18 + 5.86814685315291 * u4_t2_h19 + 5.86814685315291 * u4_t3_h19 + 5.86814685315291 * u4_t6_h19 + 5.86814685315291 * u4_t8_h19 + 5.86814685315291 * u4_t9_h19 + 5.47355172862004 * u4_t2_h20 + 5.47355172862004 * u4_t6_h20 + 5.47355172862004 * u4_t9_h20 + 5.5935682483188 * u4_t6_h21 + 5.89200502972277 * u4_t6_h22 + 5.89200502972277 * u4_t7_h22 + 4.96980910226514 * u4_t6_h23 + 4.96980910226514 * u4_t7_h23;
0 <= u4_t1_h1 <= 1;
0 <= u4_t1_h2 <= 1;
0 <= u4_t1_h3 <= 1;
0 <= u4_t1_h4 <= 1;
0 <= u4_t1_h5 <= 1;
0 <= u4_t1_h6 <= 1;
0 <= u4_t1_h7 <= 1;
0 <= u4_t1_h8 <= 1;
u4_t1_h1 + u4_t1_h2 + u4_t1_h3 + u4_t1_h4 + u4_t1_h5 + u4_t1_h6 + u4_t1_h7 + u4_t1_h8 = 1;
0 <= u4_t2_h11 <= 1;
0 <= u4_t2_h12 <= 1;
0 <= u4_t2_h13 <= 1;
0 <= u4_t2_h14 <= 1;
0 <= u4_t2_h15 <= 1;
0 <= u4_t2_h16 <= 1;
0 <= u4_t2_h17 <= 1;
0 <= u4_t2_h18 <= 1;
0 <= u4_t2_h19 <= 1;
0 <= u4_t2_h20 <= 1;
u4_t2_h11 + u4_t2_h12 + u4_t2_h13 + u4_t2_h14 + u4_t2_h15 + u4_t2_h16 + u4_t2_h17 + u4_t2_h18 + u4_t2_h19 + u4_t2_h20 = 2;
0 <= u4_t3_h12 <= 1;
0 <= u4_t3_h13 <= 1;
0 <= u4_t3_h14 <= 1;
0 <= u4_t3_h15 <= 1;
0 <= u4_t3_h16 <= 1;
0 <= u4_t3_h17 <= 1;
0 <= u4_t3_h18 <= 1;
0 <= u4_t3_h19 <= 1;
u4_t3_h12 + u4_t3_h13 + u4_t3_h14 + u4_t3_h15 + u4_t3_h16 + u4_t3_h17 + u4_t3_h18 + u4_t3_h19 = 3;
0 <= u4_t4_h11 <= 1;
0 <= u4_t4_h12 <= 1;
0 <= u4_t4_h13 <= 1;
0 <= u4_t4_h14 <= 1;
0 <= u4_t4_h15 <= 1;
0 <= u4_t4_h16 <= 1;
u4_t4_h11 + u4_t4_h12 + u4_t4_h13 + u4_t4_h14 + u4_t4_h15 + u4_t4_h16 = 3;
0 <= u4_t5_h16 <= 1;
0 <= u4_t5_h17 <= 1;
0 <= u4_t5_h18 <= 1;
u4_t5_h16 + u4_t5_h17 + u4_t5_h18 = 1;
0 <= u4_t6_h19 <= 1;
0 <= u4_t6_h20 <= 1;
0 <= u4_t6_h21 <= 1;
0 <= u4_t6_h22 <= 1;
0 <= u4_t6_h23 <= 1;
u4_t6_h19 + u4_t6_h20 + u4_t6_h21 + u4_t6_h22 + u4_t6_h23 = 3;
0 <= u4_t7_h22 <= 1;
0 <= u4_t7_h23 <= 1;
u4_t7_h22 + u4_t7_h23 = 1;
0 <= u4_t8_h12 <= 1;
0 <= u4_t8_h13 <= 1;
0 <= u4_t8_h14 <= 1;
0 <= u4_t8_h15 <= 1;
0 <= u4_t8_h16 <= 1;
0 <= u4_t8_h17 <= 1;
0 <= u4_t8_h18 <= 1;
0 <= u4_t8_h19 <= 1;
u4_t8_h12 + u4_t8_h13 + u4_t8_h14 + u4_t8_h15 + u4_t8_h16 + u4_t8_h17 + u4_t8_h18 + u4_t8_h19 = 2;
0 <= u4_t9_h8 <= 1;
0 <= u4_t9_h9 <= 1;
0 <= u4_t9_h10 <= 1;
0 <= u4_t9_h11 <= 1;
0 <= u4_t9_h12 <= 1;
0 <= u4_t9_h13 <= 1;
0 <= u4_t9_h14 <= 1;
0 <= u4_t9_h15 <= 1;
0 <= u4_t9_h16 <= 1;
0 <= u4_t9_h17 <= 1;
0 <= u4_t9_h18 <= 1;
0 <= u4_t9_h19 <= 1;
0 <= u4_t9_h20 <= 1;
u4_t9_h8 + u4_t9_h9 + u4_t9_h10 + u4_t9_h11 + u4_t9_h12 + u4_t9_h13 + u4_t9_h14 + u4_t9_h15 + u4_t9_h16 + u4_t9_h17 + u4_t9_h18 + u4_t9_h19 + u4_t9_h20 = 2;
0 <= u4_t10_h4 <= 1;
0 <= u4_t10_h5 <= 1;
0 <= u4_t10_h6 <= 1;
0 <= u4_t10_h7 <= 1;
0 <= u4_t10_h8 <= 1;
0 <= u4_t10_h9 <= 1;
0 <= u4_t10_h10 <= 1;
0 <= u4_t10_h11 <= 1;
0 <= u4_t10_h12 <= 1;
u4_t10_h4 + u4_t10_h5 + u4_t10_h6 + u4_t10_h7 + u4_t10_h8 + u4_t10_h9 + u4_t10_h10 + u4_t10_h11 + u4_t10_h12 = 2;
